
Gurobi 9.0.2 (win64) logging started Sun Dec 27 05:15:38 2020

Changed value of parameter logfile to result\SunCable-20201227T0415\scenario_2030_m20_cab5000.log
   Prev:   Default: 
Gurobi Optimizer version 9.0.2 build v9.0.2rc0 (win64)
Optimize a model with 1243974 rows, 762167 columns and 3491691 nonzeros
Model fingerprint: 0x37e7157a
Coefficient statistics:
  Matrix range     [1e-07, 5e+05]
  Objective range  [1e+00, 1e+00]
  Bounds range     [0e+00, 0e+00]
  RHS range        [2e-05, 3e+08]
Warning: Model contains large matrix coefficient range
         Consider reformulating model or setting NumericFocus parameter
         to avoid numerical issues.

Concurrent LP optimizer: primal simplex, dual simplex, and barrier
Showing barrier log only...

Presolve removed 1068997 rows and 595935 columns
Presolve time: 2.83s
Presolved: 174977 rows, 280098 columns, 652320 nonzeros

Ordering time: 0.08s

Barrier statistics:
 Dense cols : 5
 AA' NZ     : 6.422e+05
 Factor NZ  : 3.150e+06 (roughly 200 MBytes of memory)
 Factor Ops : 7.040e+07 (less than 1 second per iteration)
 Threads    : 30

                  Objective                Residual
Iter       Primal          Dual         Primal    Dual     Compl     Time
   0  -2.63268682e+16 -1.07293581e+15  7.68e+06 2.51e+04  3.16e+12     3s
   1  -5.54963651e+15 -1.08626698e+15  1.61e+06 4.57e+06  8.74e+11     4s
   2  -1.81286991e+15 -1.02573956e+15  5.29e+05 8.03e+05  2.51e+11     4s
   3  -3.45898343e+14 -9.00130423e+14  1.02e+05 1.27e+05  4.92e+10     4s
   4  -7.84126513e+13 -5.61644930e+14  2.23e+04 3.49e+04  1.19e+10     5s
   5  -2.45129680e+13 -3.72002050e+14  7.14e+03 1.68e+04  4.50e+09     5s
   6  -7.19695668e+12 -2.90788349e+14  2.31e+03 1.07e+04  2.13e+09     5s
   7  -2.42627881e+12 -1.09006146e+14  9.25e+02 1.06e+03  5.01e+08     5s
   8   5.82336661e+11 -2.89387130e+13  2.29e+01 5.81e+01  5.96e+07     5s
   9   3.66394284e+11 -1.68292977e+12  3.06e+00 1.68e+00  3.91e+06     6s
  10   1.36265875e+11 -6.76369948e+11  7.22e-01 2.41e-01  1.49e+06     6s
  11   3.69172657e+10 -1.60721535e+11  1.34e-01 5.59e-09  3.54e+05     6s
  12   1.91034533e+10 -4.80107087e+10  5.32e-02 5.59e-09  1.20e+05     6s
  13   1.19164162e+10 -4.69850944e+09  1.51e-02 7.45e-09  2.96e+04     7s
  14   9.83599969e+09  2.08443906e+09  6.35e-03 5.59e-09  1.38e+04     7s
  15   9.09436799e+09  3.88328724e+09  3.15e-03 5.59e-09  9.24e+03     7s
  16   8.67615671e+09  5.10574537e+09  1.37e-03 5.59e-09  6.31e+03     7s
  17   8.49681788e+09  5.75740265e+09  5.50e-04 5.59e-09  4.83e+03     8s
  18   8.42928855e+09  6.92004631e+09  3.22e-04 2.79e-09  2.66e+03     8s
  19   8.40526465e+09  7.07472199e+09  2.31e-04 2.79e-09  2.34e+03     8s
  20   8.37034719e+09  7.22023411e+09  1.11e-04 2.79e-09  2.02e+03     8s
  21   8.34528394e+09  7.36397674e+09  4.71e-05 2.79e-09  1.73e+03     9s
  22   8.33792154e+09  7.48432704e+09  3.04e-05 3.73e-09  1.50e+03     9s
  23   8.33091579e+09  7.84134781e+09  1.69e-05 1.86e-09  8.61e+02     9s
  24   8.32755072e+09  7.88134238e+09  1.25e-05 2.79e-09  7.85e+02    10s
  25   8.32675812e+09  7.90902347e+09  1.11e-05 2.79e-09  7.35e+02    10s
  26   8.32455026e+09  7.96000688e+09  8.14e-06 1.86e-09  6.41e+02    10s
  27   8.32024531e+09  8.08647256e+09  2.47e-06 1.86e-09  4.11e+02    10s
  28   8.31783914e+09  8.14768520e+09  9.81e-07 1.86e-09  2.99e+02    11s
  29   8.31620084e+09  8.19823903e+09  3.83e-07 1.86e-09  2.07e+02    11s
  30   8.31580277e+09  8.20739145e+09  3.03e-07 1.86e-09  1.91e+02    11s
  31   8.31555055e+09  8.21579175e+09  2.54e-07 2.79e-09  1.75e+02    12s
  32   8.31544798e+09  8.21939684e+09  2.34e-07 2.79e-09  1.69e+02    12s
  33   8.31506033e+09  8.22868831e+09  1.08e-07 1.86e-09  1.52e+02    12s
  34   8.31477002e+09  8.25272699e+09  8.02e-08 1.86e-09  1.09e+02    12s
  35   8.31461614e+09  8.25539250e+09  6.06e-08 2.79e-09  1.04e+02    13s
  36   8.31448142e+09  8.26609089e+09  4.70e-08 1.86e-09  8.51e+01    13s
  37   8.31428134e+09  8.28210480e+09  3.50e-08 1.86e-09  5.66e+01    13s
  38   8.31422224e+09  8.29264052e+09  5.47e-08 1.86e-09  3.80e+01    14s
  39   8.31417426e+09  8.29956750e+09  6.36e-08 2.79e-09  2.57e+01    14s
  40   8.31414746e+09  8.30485447e+09  1.91e-08 1.86e-09  1.63e+01    14s
  41   8.31413563e+09  8.30758146e+09  1.85e-08 1.86e-09  1.15e+01    14s
  42   8.31412994e+09  8.30841921e+09  1.64e-08 1.86e-09  1.00e+01    15s
  43   8.31411646e+09  8.31172192e+09  1.96e-08 1.86e-09  4.21e+00    15s
  44   8.31409958e+09  8.31386273e+09  2.73e-08 2.79e-09  4.16e-01    15s
  45   8.31409190e+09  8.31406842e+09  2.28e-07 2.79e-09  4.13e-02    15s
  46   8.31409125e+09  8.31409100e+09  2.60e-07 2.79e-09  4.46e-04    16s
  47   8.31409125e+09  8.31409125e+09  7.68e-07 4.19e-09  2.62e-07    16s
  48   8.31409125e+09  8.31409125e+09  1.12e-06 9.31e-09  7.29e-10    16s

Barrier solved model in 48 iterations and 16.13 seconds
Optimal objective 8.31409125e+09

Crossover log...

   20026 DPushes remaining with DInf 0.0000000e+00                16s
       0 DPushes remaining with DInf 0.0000000e+00                17s
Warning: Markowitz tolerance tightened to 0.5

   79381 PPushes remaining with PInf 0.0000000e+00                17s
    7597 PPushes remaining with PInf 0.0000000e+00                20s
       0 PPushes remaining with PInf 0.0000000e+00                21s

  Push phase complete: Pinf 0.0000000e+00, Dinf 2.9589795e-08     21s

Iteration    Objective       Primal Inf.    Dual Inf.      Time
   81666    8.3140912e+09   0.000000e+00   0.000000e+00     23s

Solved with barrier
Solved in 81666 iterations and 22.90 seconds
Optimal objective  8.314091249e+09
Warning: unscaled primal violation = 0.000874225 and residual = 0.000874225
